\ENCODING=ISO-8859-1
\Problem name: IloCplex

Minimize
 OBJ: z(1,5)#10 + z(1,6)#11 + z(2,5)#16 + z(2,6)#17 + z(3,5)#22 + z(3,6)#23
      + z(4,5)#28 + z(4,6)#29 + z(5,5)#34 + z(5,6)#35 + z(6,5)#40 + z(6,6)#41
      + 6 SMax#294
Subject To
 c1:   y(1,1)#0  = 1
 c2:   y(2,1)#1  = 1
 c3:   y(3,1)#2  = 1
 c4:   y(4,1)#3  = 1
 c5:   y(5,1)#4  = 1
 c6:   y(6,1)#5  = 1
 c7:   - y(1,1)#0 + x(1,1)#42  = 0
 c8:   x(1,2)#43  = 0
 c9:   x(1,3)#44  = 0
 c10:  x(1,4)#45  = 0
 c11:  - y(1,1)#0 + x(1,5)#46  = 0
 c12:  x(1,6)#47  = 0
 c13:  x(2,1)#48  = 0
 c14:  - y(2,1)#1 + x(2,2)#49  = 0
 c15:  x(2,3)#50  = 0
 c16:  x(2,4)#51  = 0
 c17:  - y(2,1)#1 + x(2,5)#52  = 0
 c18:  x(2,6)#53  = 0
 c19:  - y(3,1)#2 + x(3,1)#54  = 0
 c20:  - y(3,1)#2 + x(3,2)#55  = 0
 c21:  x(3,3)#56  = 0
 c22:  x(3,4)#57  = 0
 c23:  x(3,5)#58  = 0
 c24:  x(3,6)#59  = 0
 c25:  x(4,1)#60  = 0
 c26:  x(4,2)#61  = 0
 c27:  - y(4,1)#3 + x(4,3)#62  = 0
 c28:  - y(4,1)#3 + x(4,4)#63  = 0
 c29:  x(4,5)#64  = 0
 c30:  x(4,6)#65  = 0
 c31:  x(5,1)#66  = 0
 c32:  x(5,2)#67  = 0
 c33:  - y(5,1)#4 + x(5,3)#68  = 0
 c34:  x(5,4)#69  = 0
 c35:  x(5,5)#70  = 0
 c36:  - y(5,1)#4 + x(5,6)#71  = 0
 c37:  x(6,1)#72  = 0
 c38:  x(6,2)#73  = 0
 c39:  x(6,3)#74  = 0
 c40:  - y(6,1)#5 + x(6,4)#75  = 0
 c41:  x(6,5)#76  = 0
 c42:  - y(6,1)#5 + x(6,6)#77  = 0
 c43:  x(1,1)#42 + x(1,2)#43 + x(1,3)#44 + x(1,4)#45 + x(1,5)#46 + x(1,6)#47
       <= 3
 c44:  x(2,1)#48 + x(2,2)#49 + x(2,3)#50 + x(2,4)#51 + x(2,5)#52 + x(2,6)#53
       <= 3
 c45:  x(3,1)#54 + x(3,2)#55 + x(3,3)#56 + x(3,4)#57 + x(3,5)#58 + x(3,6)#59
       <= 3
 c46:  x(4,1)#60 + x(4,2)#61 + x(4,3)#62 + x(4,4)#63 + x(4,5)#64 + x(4,6)#65
       <= 3
 c47:  x(5,1)#66 + x(5,2)#67 + x(5,3)#68 + x(5,4)#69 + x(5,5)#70 + x(5,6)#71
       <= 3
 c48:  x(6,1)#72 + x(6,2)#73 + x(6,3)#74 + x(6,4)#75 + x(6,5)#76 + x(6,6)#77
       <= 3
 c49:  z(1,1)#6  = 0
 c50:  z(2,1)#12  = 0
 c51:  z(3,1)#18  = 0
 c52:  z(4,1)#24  = 0
 c53:  z(5,1)#30  = 0
 c54:  z(6,1)#36  = 0
 c55:  z(1,2)#7 + z(1,3)#8 + z(1,4)#9 + z(1,5)#10 + z(1,6)#11  = 1
 c56:  z(2,2)#13 + z(2,3)#14 + z(2,4)#15 + z(2,5)#16 + z(2,6)#17  = 1
 c57:  z(3,2)#19 + z(3,3)#20 + z(3,4)#21 + z(3,5)#22 + z(3,6)#23  = 1
 c58:  z(4,2)#25 + z(4,3)#26 + z(4,4)#27 + z(4,5)#28 + z(4,6)#29  = 1
 c59:  z(5,2)#31 + z(5,3)#32 + z(5,4)#33 + z(5,5)#34 + z(5,6)#35  = 1
 c60:  z(6,2)#37 + z(6,3)#38 + z(6,4)#39 + z(6,5)#40 + z(6,6)#41  = 1
 c61:  z(1,1)#6 + z(1,2)#7 + x(1,1)#42 - t(1,1,1)#78 <= 1
 c62:  z(1,2)#7 + z(1,3)#8 + x(1,1)#42 - t(1,1,2)#79 <= 1
 c63:  z(1,3)#8 + z(1,4)#9 + x(1,1)#42 - t(1,1,3)#80 <= 1
 c64:  z(1,4)#9 + z(1,5)#10 + x(1,1)#42 - t(1,1,4)#81 <= 1
 c65:  z(1,5)#10 + z(1,6)#11 + x(1,1)#42 - t(1,1,5)#82 <= 1
 c66:  z(1,6)#11 + x(1,1)#42 - t(1,1,6)#83 <= 1
 c67:  z(1,1)#6 + z(1,2)#7 + x(1,2)#43 - t(1,2,1)#84 <= 1
 c68:  z(1,2)#7 + z(1,3)#8 + x(1,2)#43 - t(1,2,2)#85 <= 1
 c69:  z(1,3)#8 + z(1,4)#9 + x(1,2)#43 - t(1,2,3)#86 <= 1
 c70:  z(1,4)#9 + z(1,5)#10 + x(1,2)#43 - t(1,2,4)#87 <= 1
 c71:  z(1,5)#10 + z(1,6)#11 + x(1,2)#43 - t(1,2,5)#88 <= 1
 c72:  z(1,6)#11 + x(1,2)#43 - t(1,2,6)#89 <= 1
 c73:  z(1,1)#6 + z(1,2)#7 + x(1,3)#44 - t(1,3,1)#90 <= 1
 c74:  z(1,2)#7 + z(1,3)#8 + x(1,3)#44 - t(1,3,2)#91 <= 1
 c75:  z(1,3)#8 + z(1,4)#9 + x(1,3)#44 - t(1,3,3)#92 <= 1
 c76:  z(1,4)#9 + z(1,5)#10 + x(1,3)#44 - t(1,3,4)#93 <= 1
 c77:  z(1,5)#10 + z(1,6)#11 + x(1,3)#44 - t(1,3,5)#94 <= 1
 c78:  z(1,6)#11 + x(1,3)#44 - t(1,3,6)#95 <= 1
 c79:  z(1,1)#6 + z(1,2)#7 + x(1,4)#45 - t(1,4,1)#96 <= 1
 c80:  z(1,2)#7 + z(1,3)#8 + x(1,4)#45 - t(1,4,2)#97 <= 1
 c81:  z(1,3)#8 + z(1,4)#9 + x(1,4)#45 - t(1,4,3)#98 <= 1
 c82:  z(1,4)#9 + z(1,5)#10 + x(1,4)#45 - t(1,4,4)#99 <= 1
 c83:  z(1,5)#10 + z(1,6)#11 + x(1,4)#45 - t(1,4,5)#100 <= 1
 c84:  z(1,6)#11 + x(1,4)#45 - t(1,4,6)#101 <= 1
 c85:  z(1,1)#6 + z(1,2)#7 + x(1,5)#46 - t(1,5,1)#102 <= 1
 c86:  z(1,2)#7 + z(1,3)#8 + x(1,5)#46 - t(1,5,2)#103 <= 1
 c87:  z(1,3)#8 + z(1,4)#9 + x(1,5)#46 - t(1,5,3)#104 <= 1
 c88:  z(1,4)#9 + z(1,5)#10 + x(1,5)#46 - t(1,5,4)#105 <= 1
 c89:  z(1,5)#10 + z(1,6)#11 + x(1,5)#46 - t(1,5,5)#106 <= 1
 c90:  z(1,6)#11 + x(1,5)#46 - t(1,5,6)#107 <= 1
 c91:  z(1,1)#6 + z(1,2)#7 + x(1,6)#47 - t(1,6,1)#108 <= 1
 c92:  z(1,2)#7 + z(1,3)#8 + x(1,6)#47 - t(1,6,2)#109 <= 1
 c93:  z(1,3)#8 + z(1,4)#9 + x(1,6)#47 - t(1,6,3)#110 <= 1
 c94:  z(1,4)#9 + z(1,5)#10 + x(1,6)#47 - t(1,6,4)#111 <= 1
 c95:  z(1,5)#10 + z(1,6)#11 + x(1,6)#47 - t(1,6,5)#112 <= 1
 c96:  z(1,6)#11 + x(1,6)#47 - t(1,6,6)#113 <= 1
 c97:  z(2,1)#12 + z(2,2)#13 + x(2,1)#48 - t(2,1,1)#114 <= 1
 c98:  z(2,2)#13 + z(2,3)#14 + x(2,1)#48 - t(2,1,2)#115 <= 1
 c99:  z(2,3)#14 + z(2,4)#15 + x(2,1)#48 - t(2,1,3)#116 <= 1
 c100: z(2,4)#15 + z(2,5)#16 + x(2,1)#48 - t(2,1,4)#117 <= 1
 c101: z(2,5)#16 + z(2,6)#17 + x(2,1)#48 - t(2,1,5)#118 <= 1
 c102: z(2,6)#17 + x(2,1)#48 - t(2,1,6)#119 <= 1
 c103: z(2,1)#12 + z(2,2)#13 + x(2,2)#49 - t(2,2,1)#120 <= 1
 c104: z(2,2)#13 + z(2,3)#14 + x(2,2)#49 - t(2,2,2)#121 <= 1
 c105: z(2,3)#14 + z(2,4)#15 + x(2,2)#49 - t(2,2,3)#122 <= 1
 c106: z(2,4)#15 + z(2,5)#16 + x(2,2)#49 - t(2,2,4)#123 <= 1
 c107: z(2,5)#16 + z(2,6)#17 + x(2,2)#49 - t(2,2,5)#124 <= 1
 c108: z(2,6)#17 + x(2,2)#49 - t(2,2,6)#125 <= 1
 c109: z(2,1)#12 + z(2,2)#13 + x(2,3)#50 - t(2,3,1)#126 <= 1
 c110: z(2,2)#13 + z(2,3)#14 + x(2,3)#50 - t(2,3,2)#127 <= 1
 c111: z(2,3)#14 + z(2,4)#15 + x(2,3)#50 - t(2,3,3)#128 <= 1
 c112: z(2,4)#15 + z(2,5)#16 + x(2,3)#50 - t(2,3,4)#129 <= 1
 c113: z(2,5)#16 + z(2,6)#17 + x(2,3)#50 - t(2,3,5)#130 <= 1
 c114: z(2,6)#17 + x(2,3)#50 - t(2,3,6)#131 <= 1
 c115: z(2,1)#12 + z(2,2)#13 + x(2,4)#51 - t(2,4,1)#132 <= 1
 c116: z(2,2)#13 + z(2,3)#14 + x(2,4)#51 - t(2,4,2)#133 <= 1
 c117: z(2,3)#14 + z(2,4)#15 + x(2,4)#51 - t(2,4,3)#134 <= 1
 c118: z(2,4)#15 + z(2,5)#16 + x(2,4)#51 - t(2,4,4)#135 <= 1
 c119: z(2,5)#16 + z(2,6)#17 + x(2,4)#51 - t(2,4,5)#136 <= 1
 c120: z(2,6)#17 + x(2,4)#51 - t(2,4,6)#137 <= 1
 c121: z(2,1)#12 + z(2,2)#13 + x(2,5)#52 - t(2,5,1)#138 <= 1
 c122: z(2,2)#13 + z(2,3)#14 + x(2,5)#52 - t(2,5,2)#139 <= 1
 c123: z(2,3)#14 + z(2,4)#15 + x(2,5)#52 - t(2,5,3)#140 <= 1
 c124: z(2,4)#15 + z(2,5)#16 + x(2,5)#52 - t(2,5,4)#141 <= 1
 c125: z(2,5)#16 + z(2,6)#17 + x(2,5)#52 - t(2,5,5)#142 <= 1
 c126: z(2,6)#17 + x(2,5)#52 - t(2,5,6)#143 <= 1
 c127: z(2,1)#12 + z(2,2)#13 + x(2,6)#53 - t(2,6,1)#144 <= 1
 c128: z(2,2)#13 + z(2,3)#14 + x(2,6)#53 - t(2,6,2)#145 <= 1
 c129: z(2,3)#14 + z(2,4)#15 + x(2,6)#53 - t(2,6,3)#146 <= 1
 c130: z(2,4)#15 + z(2,5)#16 + x(2,6)#53 - t(2,6,4)#147 <= 1
 c131: z(2,5)#16 + z(2,6)#17 + x(2,6)#53 - t(2,6,5)#148 <= 1
 c132: z(2,6)#17 + x(2,6)#53 - t(2,6,6)#149 <= 1
 c133: z(3,1)#18 + z(3,2)#19 + x(3,1)#54 - t(3,1,1)#150 <= 1
 c134: z(3,2)#19 + z(3,3)#20 + x(3,1)#54 - t(3,1,2)#151 <= 1
 c135: z(3,3)#20 + z(3,4)#21 + x(3,1)#54 - t(3,1,3)#152 <= 1
 c136: z(3,4)#21 + z(3,5)#22 + x(3,1)#54 - t(3,1,4)#153 <= 1
 c137: z(3,5)#22 + z(3,6)#23 + x(3,1)#54 - t(3,1,5)#154 <= 1
 c138: z(3,6)#23 + x(3,1)#54 - t(3,1,6)#155 <= 1
 c139: z(3,1)#18 + z(3,2)#19 + x(3,2)#55 - t(3,2,1)#156 <= 1
 c140: z(3,2)#19 + z(3,3)#20 + x(3,2)#55 - t(3,2,2)#157 <= 1
 c141: z(3,3)#20 + z(3,4)#21 + x(3,2)#55 - t(3,2,3)#158 <= 1
 c142: z(3,4)#21 + z(3,5)#22 + x(3,2)#55 - t(3,2,4)#159 <= 1
 c143: z(3,5)#22 + z(3,6)#23 + x(3,2)#55 - t(3,2,5)#160 <= 1
 c144: z(3,6)#23 + x(3,2)#55 - t(3,2,6)#161 <= 1
 c145: z(3,1)#18 + z(3,2)#19 + x(3,3)#56 - t(3,3,1)#162 <= 1
 c146: z(3,2)#19 + z(3,3)#20 + x(3,3)#56 - t(3,3,2)#163 <= 1
 c147: z(3,3)#20 + z(3,4)#21 + x(3,3)#56 - t(3,3,3)#164 <= 1
 c148: z(3,4)#21 + z(3,5)#22 + x(3,3)#56 - t(3,3,4)#165 <= 1
 c149: z(3,5)#22 + z(3,6)#23 + x(3,3)#56 - t(3,3,5)#166 <= 1
 c150: z(3,6)#23 + x(3,3)#56 - t(3,3,6)#167 <= 1
 c151: z(3,1)#18 + z(3,2)#19 + x(3,4)#57 - t(3,4,1)#168 <= 1
 c152: z(3,2)#19 + z(3,3)#20 + x(3,4)#57 - t(3,4,2)#169 <= 1
 c153: z(3,3)#20 + z(3,4)#21 + x(3,4)#57 - t(3,4,3)#170 <= 1
 c154: z(3,4)#21 + z(3,5)#22 + x(3,4)#57 - t(3,4,4)#171 <= 1
 c155: z(3,5)#22 + z(3,6)#23 + x(3,4)#57 - t(3,4,5)#172 <= 1
 c156: z(3,6)#23 + x(3,4)#57 - t(3,4,6)#173 <= 1
 c157: z(3,1)#18 + z(3,2)#19 + x(3,5)#58 - t(3,5,1)#174 <= 1
 c158: z(3,2)#19 + z(3,3)#20 + x(3,5)#58 - t(3,5,2)#175 <= 1
 c159: z(3,3)#20 + z(3,4)#21 + x(3,5)#58 - t(3,5,3)#176 <= 1
 c160: z(3,4)#21 + z(3,5)#22 + x(3,5)#58 - t(3,5,4)#177 <= 1
 c161: z(3,5)#22 + z(3,6)#23 + x(3,5)#58 - t(3,5,5)#178 <= 1
 c162: z(3,6)#23 + x(3,5)#58 - t(3,5,6)#179 <= 1
 c163: z(3,1)#18 + z(3,2)#19 + x(3,6)#59 - t(3,6,1)#180 <= 1
 c164: z(3,2)#19 + z(3,3)#20 + x(3,6)#59 - t(3,6,2)#181 <= 1
 c165: z(3,3)#20 + z(3,4)#21 + x(3,6)#59 - t(3,6,3)#182 <= 1
 c166: z(3,4)#21 + z(3,5)#22 + x(3,6)#59 - t(3,6,4)#183 <= 1
 c167: z(3,5)#22 + z(3,6)#23 + x(3,6)#59 - t(3,6,5)#184 <= 1
 c168: z(3,6)#23 + x(3,6)#59 - t(3,6,6)#185 <= 1
 c169: z(4,1)#24 + z(4,2)#25 + x(4,1)#60 - t(4,1,1)#186 <= 1
 c170: z(4,2)#25 + z(4,3)#26 + x(4,1)#60 - t(4,1,2)#187 <= 1
 c171: z(4,3)#26 + z(4,4)#27 + x(4,1)#60 - t(4,1,3)#188 <= 1
 c172: z(4,4)#27 + z(4,5)#28 + x(4,1)#60 - t(4,1,4)#189 <= 1
 c173: z(4,5)#28 + z(4,6)#29 + x(4,1)#60 - t(4,1,5)#190 <= 1
 c174: z(4,6)#29 + x(4,1)#60 - t(4,1,6)#191 <= 1
 c175: z(4,1)#24 + z(4,2)#25 + x(4,2)#61 - t(4,2,1)#192 <= 1
 c176: z(4,2)#25 + z(4,3)#26 + x(4,2)#61 - t(4,2,2)#193 <= 1
 c177: z(4,3)#26 + z(4,4)#27 + x(4,2)#61 - t(4,2,3)#194 <= 1
 c178: z(4,4)#27 + z(4,5)#28 + x(4,2)#61 - t(4,2,4)#195 <= 1
 c179: z(4,5)#28 + z(4,6)#29 + x(4,2)#61 - t(4,2,5)#196 <= 1
 c180: z(4,6)#29 + x(4,2)#61 - t(4,2,6)#197 <= 1
 c181: z(4,1)#24 + z(4,2)#25 + x(4,3)#62 - t(4,3,1)#198 <= 1
 c182: z(4,2)#25 + z(4,3)#26 + x(4,3)#62 - t(4,3,2)#199 <= 1
 c183: z(4,3)#26 + z(4,4)#27 + x(4,3)#62 - t(4,3,3)#200 <= 1
 c184: z(4,4)#27 + z(4,5)#28 + x(4,3)#62 - t(4,3,4)#201 <= 1
 c185: z(4,5)#28 + z(4,6)#29 + x(4,3)#62 - t(4,3,5)#202 <= 1
 c186: z(4,6)#29 + x(4,3)#62 - t(4,3,6)#203 <= 1
 c187: z(4,1)#24 + z(4,2)#25 + x(4,4)#63 - t(4,4,1)#204 <= 1
 c188: z(4,2)#25 + z(4,3)#26 + x(4,4)#63 - t(4,4,2)#205 <= 1
 c189: z(4,3)#26 + z(4,4)#27 + x(4,4)#63 - t(4,4,3)#206 <= 1
 c190: z(4,4)#27 + z(4,5)#28 + x(4,4)#63 - t(4,4,4)#207 <= 1
 c191: z(4,5)#28 + z(4,6)#29 + x(4,4)#63 - t(4,4,5)#208 <= 1
 c192: z(4,6)#29 + x(4,4)#63 - t(4,4,6)#209 <= 1
 c193: z(4,1)#24 + z(4,2)#25 + x(4,5)#64 - t(4,5,1)#210 <= 1
 c194: z(4,2)#25 + z(4,3)#26 + x(4,5)#64 - t(4,5,2)#211 <= 1
 c195: z(4,3)#26 + z(4,4)#27 + x(4,5)#64 - t(4,5,3)#212 <= 1
 c196: z(4,4)#27 + z(4,5)#28 + x(4,5)#64 - t(4,5,4)#213 <= 1
 c197: z(4,5)#28 + z(4,6)#29 + x(4,5)#64 - t(4,5,5)#214 <= 1
 c198: z(4,6)#29 + x(4,5)#64 - t(4,5,6)#215 <= 1
 c199: z(4,1)#24 + z(4,2)#25 + x(4,6)#65 - t(4,6,1)#216 <= 1
 c200: z(4,2)#25 + z(4,3)#26 + x(4,6)#65 - t(4,6,2)#217 <= 1
 c201: z(4,3)#26 + z(4,4)#27 + x(4,6)#65 - t(4,6,3)#218 <= 1
 c202: z(4,4)#27 + z(4,5)#28 + x(4,6)#65 - t(4,6,4)#219 <= 1
 c203: z(4,5)#28 + z(4,6)#29 + x(4,6)#65 - t(4,6,5)#220 <= 1
 c204: z(4,6)#29 + x(4,6)#65 - t(4,6,6)#221 <= 1
 c205: z(5,1)#30 + z(5,2)#31 + x(5,1)#66 - t(5,1,1)#222 <= 1
 c206: z(5,2)#31 + z(5,3)#32 + x(5,1)#66 - t(5,1,2)#223 <= 1
 c207: z(5,3)#32 + z(5,4)#33 + x(5,1)#66 - t(5,1,3)#224 <= 1
 c208: z(5,4)#33 + z(5,5)#34 + x(5,1)#66 - t(5,1,4)#225 <= 1
 c209: z(5,5)#34 + z(5,6)#35 + x(5,1)#66 - t(5,1,5)#226 <= 1
 c210: z(5,6)#35 + x(5,1)#66 - t(5,1,6)#227 <= 1
 c211: z(5,1)#30 + z(5,2)#31 + x(5,2)#67 - t(5,2,1)#228 <= 1
 c212: z(5,2)#31 + z(5,3)#32 + x(5,2)#67 - t(5,2,2)#229 <= 1
 c213: z(5,3)#32 + z(5,4)#33 + x(5,2)#67 - t(5,2,3)#230 <= 1
 c214: z(5,4)#33 + z(5,5)#34 + x(5,2)#67 - t(5,2,4)#231 <= 1
 c215: z(5,5)#34 + z(5,6)#35 + x(5,2)#67 - t(5,2,5)#232 <= 1
 c216: z(5,6)#35 + x(5,2)#67 - t(5,2,6)#233 <= 1
 c217: z(5,1)#30 + z(5,2)#31 + x(5,3)#68 - t(5,3,1)#234 <= 1
 c218: z(5,2)#31 + z(5,3)#32 + x(5,3)#68 - t(5,3,2)#235 <= 1
 c219: z(5,3)#32 + z(5,4)#33 + x(5,3)#68 - t(5,3,3)#236 <= 1
 c220: z(5,4)#33 + z(5,5)#34 + x(5,3)#68 - t(5,3,4)#237 <= 1
 c221: z(5,5)#34 + z(5,6)#35 + x(5,3)#68 - t(5,3,5)#238 <= 1
 c222: z(5,6)#35 + x(5,3)#68 - t(5,3,6)#239 <= 1
 c223: z(5,1)#30 + z(5,2)#31 + x(5,4)#69 - t(5,4,1)#240 <= 1
 c224: z(5,2)#31 + z(5,3)#32 + x(5,4)#69 - t(5,4,2)#241 <= 1
 c225: z(5,3)#32 + z(5,4)#33 + x(5,4)#69 - t(5,4,3)#242 <= 1
 c226: z(5,4)#33 + z(5,5)#34 + x(5,4)#69 - t(5,4,4)#243 <= 1
 c227: z(5,5)#34 + z(5,6)#35 + x(5,4)#69 - t(5,4,5)#244 <= 1
 c228: z(5,6)#35 + x(5,4)#69 - t(5,4,6)#245 <= 1
 c229: z(5,1)#30 + z(5,2)#31 + x(5,5)#70 - t(5,5,1)#246 <= 1
 c230: z(5,2)#31 + z(5,3)#32 + x(5,5)#70 - t(5,5,2)#247 <= 1
 c231: z(5,3)#32 + z(5,4)#33 + x(5,5)#70 - t(5,5,3)#248 <= 1
 c232: z(5,4)#33 + z(5,5)#34 + x(5,5)#70 - t(5,5,4)#249 <= 1
 c233: z(5,5)#34 + z(5,6)#35 + x(5,5)#70 - t(5,5,5)#250 <= 1
 c234: z(5,6)#35 + x(5,5)#70 - t(5,5,6)#251 <= 1
 c235: z(5,1)#30 + z(5,2)#31 + x(5,6)#71 - t(5,6,1)#252 <= 1
 c236: z(5,2)#31 + z(5,3)#32 + x(5,6)#71 - t(5,6,2)#253 <= 1
 c237: z(5,3)#32 + z(5,4)#33 + x(5,6)#71 - t(5,6,3)#254 <= 1
 c238: z(5,4)#33 + z(5,5)#34 + x(5,6)#71 - t(5,6,4)#255 <= 1
 c239: z(5,5)#34 + z(5,6)#35 + x(5,6)#71 - t(5,6,5)#256 <= 1
 c240: z(5,6)#35 + x(5,6)#71 - t(5,6,6)#257 <= 1
 c241: z(6,1)#36 + z(6,2)#37 + x(6,1)#72 - t(6,1,1)#258 <= 1
 c242: z(6,2)#37 + z(6,3)#38 + x(6,1)#72 - t(6,1,2)#259 <= 1
 c243: z(6,3)#38 + z(6,4)#39 + x(6,1)#72 - t(6,1,3)#260 <= 1
 c244: z(6,4)#39 + z(6,5)#40 + x(6,1)#72 - t(6,1,4)#261 <= 1
 c245: z(6,5)#40 + z(6,6)#41 + x(6,1)#72 - t(6,1,5)#262 <= 1
 c246: z(6,6)#41 + x(6,1)#72 - t(6,1,6)#263 <= 1
 c247: z(6,1)#36 + z(6,2)#37 + x(6,2)#73 - t(6,2,1)#264 <= 1
 c248: z(6,2)#37 + z(6,3)#38 + x(6,2)#73 - t(6,2,2)#265 <= 1
 c249: z(6,3)#38 + z(6,4)#39 + x(6,2)#73 - t(6,2,3)#266 <= 1
 c250: z(6,4)#39 + z(6,5)#40 + x(6,2)#73 - t(6,2,4)#267 <= 1
 c251: z(6,5)#40 + z(6,6)#41 + x(6,2)#73 - t(6,2,5)#268 <= 1
 c252: z(6,6)#41 + x(6,2)#73 - t(6,2,6)#269 <= 1
 c253: z(6,1)#36 + z(6,2)#37 + x(6,3)#74 - t(6,3,1)#270 <= 1
 c254: z(6,2)#37 + z(6,3)#38 + x(6,3)#74 - t(6,3,2)#271 <= 1
 c255: z(6,3)#38 + z(6,4)#39 + x(6,3)#74 - t(6,3,3)#272 <= 1
 c256: z(6,4)#39 + z(6,5)#40 + x(6,3)#74 - t(6,3,4)#273 <= 1
 c257: z(6,5)#40 + z(6,6)#41 + x(6,3)#74 - t(6,3,5)#274 <= 1
 c258: z(6,6)#41 + x(6,3)#74 - t(6,3,6)#275 <= 1
 c259: z(6,1)#36 + z(6,2)#37 + x(6,4)#75 - t(6,4,1)#276 <= 1
 c260: z(6,2)#37 + z(6,3)#38 + x(6,4)#75 - t(6,4,2)#277 <= 1
 c261: z(6,3)#38 + z(6,4)#39 + x(6,4)#75 - t(6,4,3)#278 <= 1
 c262: z(6,4)#39 + z(6,5)#40 + x(6,4)#75 - t(6,4,4)#279 <= 1
 c263: z(6,5)#40 + z(6,6)#41 + x(6,4)#75 - t(6,4,5)#280 <= 1
 c264: z(6,6)#41 + x(6,4)#75 - t(6,4,6)#281 <= 1
 c265: z(6,1)#36 + z(6,2)#37 + x(6,5)#76 - t(6,5,1)#282 <= 1
 c266: z(6,2)#37 + z(6,3)#38 + x(6,5)#76 - t(6,5,2)#283 <= 1
 c267: z(6,3)#38 + z(6,4)#39 + x(6,5)#76 - t(6,5,3)#284 <= 1
 c268: z(6,4)#39 + z(6,5)#40 + x(6,5)#76 - t(6,5,4)#285 <= 1
 c269: z(6,5)#40 + z(6,6)#41 + x(6,5)#76 - t(6,5,5)#286 <= 1
 c270: z(6,6)#41 + x(6,5)#76 - t(6,5,6)#287 <= 1
 c271: z(6,1)#36 + z(6,2)#37 + x(6,6)#77 - t(6,6,1)#288 <= 1
 c272: z(6,2)#37 + z(6,3)#38 + x(6,6)#77 - t(6,6,2)#289 <= 1
 c273: z(6,3)#38 + z(6,4)#39 + x(6,6)#77 - t(6,6,3)#290 <= 1
 c274: z(6,4)#39 + z(6,5)#40 + x(6,6)#77 - t(6,6,4)#291 <= 1
 c275: z(6,5)#40 + z(6,6)#41 + x(6,6)#77 - t(6,6,5)#292 <= 1
 c276: z(6,6)#41 + x(6,6)#77 - t(6,6,6)#293 <= 1
 c277: - 2 x(1,1)#42 + t(1,1,1)#78 + t(1,1,2)#79 + t(1,1,3)#80 + t(1,1,4)#81
       + t(1,1,5)#82 + t(1,1,6)#83  = 0
 c278: - 2 x(1,2)#43 + t(1,2,1)#84 + t(1,2,2)#85 + t(1,2,3)#86 + t(1,2,4)#87
       + t(1,2,5)#88 + t(1,2,6)#89  = 0
 c279: - 2 x(1,3)#44 + t(1,3,1)#90 + t(1,3,2)#91 + t(1,3,3)#92 + t(1,3,4)#93
       + t(1,3,5)#94 + t(1,3,6)#95  = 0
 c280: - 2 x(1,4)#45 + t(1,4,1)#96 + t(1,4,2)#97 + t(1,4,3)#98 + t(1,4,4)#99
       + t(1,4,5)#100 + t(1,4,6)#101  = 0
 c281: - 2 x(1,5)#46 + t(1,5,1)#102 + t(1,5,2)#103 + t(1,5,3)#104
       + t(1,5,4)#105 + t(1,5,5)#106 + t(1,5,6)#107  = 0
 c282: - 2 x(1,6)#47 + t(1,6,1)#108 + t(1,6,2)#109 + t(1,6,3)#110
       + t(1,6,4)#111 + t(1,6,5)#112 + t(1,6,6)#113  = 0
 c283: - 2 x(2,1)#48 + t(2,1,1)#114 + t(2,1,2)#115 + t(2,1,3)#116
       + t(2,1,4)#117 + t(2,1,5)#118 + t(2,1,6)#119  = 0
 c284: - 2 x(2,2)#49 + t(2,2,1)#120 + t(2,2,2)#121 + t(2,2,3)#122
       + t(2,2,4)#123 + t(2,2,5)#124 + t(2,2,6)#125  = 0
 c285: - 2 x(2,3)#50 + t(2,3,1)#126 + t(2,3,2)#127 + t(2,3,3)#128
       + t(2,3,4)#129 + t(2,3,5)#130 + t(2,3,6)#131  = 0
 c286: - 2 x(2,4)#51 + t(2,4,1)#132 + t(2,4,2)#133 + t(2,4,3)#134
       + t(2,4,4)#135 + t(2,4,5)#136 + t(2,4,6)#137  = 0
 c287: - 2 x(2,5)#52 + t(2,5,1)#138 + t(2,5,2)#139 + t(2,5,3)#140
       + t(2,5,4)#141 + t(2,5,5)#142 + t(2,5,6)#143  = 0
 c288: - 2 x(2,6)#53 + t(2,6,1)#144 + t(2,6,2)#145 + t(2,6,3)#146
       + t(2,6,4)#147 + t(2,6,5)#148 + t(2,6,6)#149  = 0
 c289: - 2 x(3,1)#54 + t(3,1,1)#150 + t(3,1,2)#151 + t(3,1,3)#152
       + t(3,1,4)#153 + t(3,1,5)#154 + t(3,1,6)#155  = 0
 c290: - 2 x(3,2)#55 + t(3,2,1)#156 + t(3,2,2)#157 + t(3,2,3)#158
       + t(3,2,4)#159 + t(3,2,5)#160 + t(3,2,6)#161  = 0
 c291: - 2 x(3,3)#56 + t(3,3,1)#162 + t(3,3,2)#163 + t(3,3,3)#164
       + t(3,3,4)#165 + t(3,3,5)#166 + t(3,3,6)#167  = 0
 c292: - 2 x(3,4)#57 + t(3,4,1)#168 + t(3,4,2)#169 + t(3,4,3)#170
       + t(3,4,4)#171 + t(3,4,5)#172 + t(3,4,6)#173  = 0
 c293: - 2 x(3,5)#58 + t(3,5,1)#174 + t(3,5,2)#175 + t(3,5,3)#176
       + t(3,5,4)#177 + t(3,5,5)#178 + t(3,5,6)#179  = 0
 c294: - 2 x(3,6)#59 + t(3,6,1)#180 + t(3,6,2)#181 + t(3,6,3)#182
       + t(3,6,4)#183 + t(3,6,5)#184 + t(3,6,6)#185  = 0
 c295: - 2 x(4,1)#60 + t(4,1,1)#186 + t(4,1,2)#187 + t(4,1,3)#188
       + t(4,1,4)#189 + t(4,1,5)#190 + t(4,1,6)#191  = 0
 c296: - 2 x(4,2)#61 + t(4,2,1)#192 + t(4,2,2)#193 + t(4,2,3)#194
       + t(4,2,4)#195 + t(4,2,5)#196 + t(4,2,6)#197  = 0
 c297: - 2 x(4,3)#62 + t(4,3,1)#198 + t(4,3,2)#199 + t(4,3,3)#200
       + t(4,3,4)#201 + t(4,3,5)#202 + t(4,3,6)#203  = 0
 c298: - 2 x(4,4)#63 + t(4,4,1)#204 + t(4,4,2)#205 + t(4,4,3)#206
       + t(4,4,4)#207 + t(4,4,5)#208 + t(4,4,6)#209  = 0
 c299: - 2 x(4,5)#64 + t(4,5,1)#210 + t(4,5,2)#211 + t(4,5,3)#212
       + t(4,5,4)#213 + t(4,5,5)#214 + t(4,5,6)#215  = 0
 c300: - 2 x(4,6)#65 + t(4,6,1)#216 + t(4,6,2)#217 + t(4,6,3)#218
       + t(4,6,4)#219 + t(4,6,5)#220 + t(4,6,6)#221  = 0
 c301: - 2 x(5,1)#66 + t(5,1,1)#222 + t(5,1,2)#223 + t(5,1,3)#224
       + t(5,1,4)#225 + t(5,1,5)#226 + t(5,1,6)#227  = 0
 c302: - 2 x(5,2)#67 + t(5,2,1)#228 + t(5,2,2)#229 + t(5,2,3)#230
       + t(5,2,4)#231 + t(5,2,5)#232 + t(5,2,6)#233  = 0
 c303: - 2 x(5,3)#68 + t(5,3,1)#234 + t(5,3,2)#235 + t(5,3,3)#236
       + t(5,3,4)#237 + t(5,3,5)#238 + t(5,3,6)#239  = 0
 c304: - 2 x(5,4)#69 + t(5,4,1)#240 + t(5,4,2)#241 + t(5,4,3)#242
       + t(5,4,4)#243 + t(5,4,5)#244 + t(5,4,6)#245  = 0
 c305: - 2 x(5,5)#70 + t(5,5,1)#246 + t(5,5,2)#247 + t(5,5,3)#248
       + t(5,5,4)#249 + t(5,5,5)#250 + t(5,5,6)#251  = 0
 c306: - 2 x(5,6)#71 + t(5,6,1)#252 + t(5,6,2)#253 + t(5,6,3)#254
       + t(5,6,4)#255 + t(5,6,5)#256 + t(5,6,6)#257  = 0
 c307: - 2 x(6,1)#72 + t(6,1,1)#258 + t(6,1,2)#259 + t(6,1,3)#260
       + t(6,1,4)#261 + t(6,1,5)#262 + t(6,1,6)#263  = 0
 c308: - 2 x(6,2)#73 + t(6,2,1)#264 + t(6,2,2)#265 + t(6,2,3)#266
       + t(6,2,4)#267 + t(6,2,5)#268 + t(6,2,6)#269  = 0
 c309: - 2 x(6,3)#74 + t(6,3,1)#270 + t(6,3,2)#271 + t(6,3,3)#272
       + t(6,3,4)#273 + t(6,3,5)#274 + t(6,3,6)#275  = 0
 c310: - 2 x(6,4)#75 + t(6,4,1)#276 + t(6,4,2)#277 + t(6,4,3)#278
       + t(6,4,4)#279 + t(6,4,5)#280 + t(6,4,6)#281  = 0
 c311: - 2 x(6,5)#76 + t(6,5,1)#282 + t(6,5,2)#283 + t(6,5,3)#284
       + t(6,5,4)#285 + t(6,5,5)#286 + t(6,5,6)#287  = 0
 c312: - 2 x(6,6)#77 + t(6,6,1)#288 + t(6,6,2)#289 + t(6,6,3)#290
       + t(6,6,4)#291 + t(6,6,5)#292 + t(6,6,6)#293  = 0
 c313: t(1,1,1)#78 + t(2,1,1)#114 + t(3,1,1)#150 + t(4,1,1)#186 + t(5,1,1)#222
       + t(6,1,1)#258 <= 1
 c314: t(1,1,2)#79 + t(2,1,2)#115 + t(3,1,2)#151 + t(4,1,2)#187 + t(5,1,2)#223
       + t(6,1,2)#259 <= 1
 c315: t(1,1,3)#80 + t(2,1,3)#116 + t(3,1,3)#152 + t(4,1,3)#188 + t(5,1,3)#224
       + t(6,1,3)#260 <= 1
 c316: t(1,1,4)#81 + t(2,1,4)#117 + t(3,1,4)#153 + t(4,1,4)#189 + t(5,1,4)#225
       + t(6,1,4)#261 <= 1
 c317: t(1,1,5)#82 + t(2,1,5)#118 + t(3,1,5)#154 + t(4,1,5)#190 + t(5,1,5)#226
       + t(6,1,5)#262 <= 1
 c318: t(1,1,6)#83 + t(2,1,6)#119 + t(3,1,6)#155 + t(4,1,6)#191 + t(5,1,6)#227
       + t(6,1,6)#263 <= 1
 c319: t(1,2,1)#84 + t(2,2,1)#120 + t(3,2,1)#156 + t(4,2,1)#192 + t(5,2,1)#228
       + t(6,2,1)#264 <= 1
 c320: t(1,2,2)#85 + t(2,2,2)#121 + t(3,2,2)#157 + t(4,2,2)#193 + t(5,2,2)#229
       + t(6,2,2)#265 <= 1
 c321: t(1,2,3)#86 + t(2,2,3)#122 + t(3,2,3)#158 + t(4,2,3)#194 + t(5,2,3)#230
       + t(6,2,3)#266 <= 1
 c322: t(1,2,4)#87 + t(2,2,4)#123 + t(3,2,4)#159 + t(4,2,4)#195 + t(5,2,4)#231
       + t(6,2,4)#267 <= 1
 c323: t(1,2,5)#88 + t(2,2,5)#124 + t(3,2,5)#160 + t(4,2,5)#196 + t(5,2,5)#232
       + t(6,2,5)#268 <= 1
 c324: t(1,2,6)#89 + t(2,2,6)#125 + t(3,2,6)#161 + t(4,2,6)#197 + t(5,2,6)#233
       + t(6,2,6)#269 <= 1
 c325: t(1,3,1)#90 + t(2,3,1)#126 + t(3,3,1)#162 + t(4,3,1)#198 + t(5,3,1)#234
       + t(6,3,1)#270 <= 1
 c326: t(1,3,2)#91 + t(2,3,2)#127 + t(3,3,2)#163 + t(4,3,2)#199 + t(5,3,2)#235
       + t(6,3,2)#271 <= 1
 c327: t(1,3,3)#92 + t(2,3,3)#128 + t(3,3,3)#164 + t(4,3,3)#200 + t(5,3,3)#236
       + t(6,3,3)#272 <= 1
 c328: t(1,3,4)#93 + t(2,3,4)#129 + t(3,3,4)#165 + t(4,3,4)#201 + t(5,3,4)#237
       + t(6,3,4)#273 <= 1
 c329: t(1,3,5)#94 + t(2,3,5)#130 + t(3,3,5)#166 + t(4,3,5)#202 + t(5,3,5)#238
       + t(6,3,5)#274 <= 1
 c330: t(1,3,6)#95 + t(2,3,6)#131 + t(3,3,6)#167 + t(4,3,6)#203 + t(5,3,6)#239
       + t(6,3,6)#275 <= 1
 c331: t(1,4,1)#96 + t(2,4,1)#132 + t(3,4,1)#168 + t(4,4,1)#204 + t(5,4,1)#240
       + t(6,4,1)#276 <= 1
 c332: t(1,4,2)#97 + t(2,4,2)#133 + t(3,4,2)#169 + t(4,4,2)#205 + t(5,4,2)#241
       + t(6,4,2)#277 <= 1
 c333: t(1,4,3)#98 + t(2,4,3)#134 + t(3,4,3)#170 + t(4,4,3)#206 + t(5,4,3)#242
       + t(6,4,3)#278 <= 1
 c334: t(1,4,4)#99 + t(2,4,4)#135 + t(3,4,4)#171 + t(4,4,4)#207 + t(5,4,4)#243
       + t(6,4,4)#279 <= 1
 c335: t(1,4,5)#100 + t(2,4,5)#136 + t(3,4,5)#172 + t(4,4,5)#208 + t(5,4,5)#244
       + t(6,4,5)#280 <= 1
 c336: t(1,4,6)#101 + t(2,4,6)#137 + t(3,4,6)#173 + t(4,4,6)#209 + t(5,4,6)#245
       + t(6,4,6)#281 <= 1
 c337: t(1,5,1)#102 + t(2,5,1)#138 + t(3,5,1)#174 + t(4,5,1)#210 + t(5,5,1)#246
       + t(6,5,1)#282 <= 1
 c338: t(1,5,2)#103 + t(2,5,2)#139 + t(3,5,2)#175 + t(4,5,2)#211 + t(5,5,2)#247
       + t(6,5,2)#283 <= 1
 c339: t(1,5,3)#104 + t(2,5,3)#140 + t(3,5,3)#176 + t(4,5,3)#212 + t(5,5,3)#248
       + t(6,5,3)#284 <= 1
 c340: t(1,5,4)#105 + t(2,5,4)#141 + t(3,5,4)#177 + t(4,5,4)#213 + t(5,5,4)#249
       + t(6,5,4)#285 <= 1
 c341: t(1,5,5)#106 + t(2,5,5)#142 + t(3,5,5)#178 + t(4,5,5)#214 + t(5,5,5)#250
       + t(6,5,5)#286 <= 1
 c342: t(1,5,6)#107 + t(2,5,6)#143 + t(3,5,6)#179 + t(4,5,6)#215 + t(5,5,6)#251
       + t(6,5,6)#287 <= 1
 c343: t(1,6,1)#108 + t(2,6,1)#144 + t(3,6,1)#180 + t(4,6,1)#216 + t(5,6,1)#252
       + t(6,6,1)#288 <= 1
 c344: t(1,6,2)#109 + t(2,6,2)#145 + t(3,6,2)#181 + t(4,6,2)#217 + t(5,6,2)#253
       + t(6,6,2)#289 <= 1
 c345: t(1,6,3)#110 + t(2,6,3)#146 + t(3,6,3)#182 + t(4,6,3)#218 + t(5,6,3)#254
       + t(6,6,3)#290 <= 1
 c346: t(1,6,4)#111 + t(2,6,4)#147 + t(3,6,4)#183 + t(4,6,4)#219 + t(5,6,4)#255
       + t(6,6,4)#291 <= 1
 c347: t(1,6,5)#112 + t(2,6,5)#148 + t(3,6,5)#184 + t(4,6,5)#220 + t(5,6,5)#256
       + t(6,6,5)#292 <= 1
 c348: t(1,6,6)#113 + t(2,6,6)#149 + t(3,6,6)#185 + t(4,6,6)#221 + t(5,6,6)#257
       + t(6,6,6)#293 <= 1
 c349: 2 z(1,2)#7 + 3 z(1,3)#8 + 4 z(1,4)#9 + 5 z(1,5)#10 + 6 z(1,6)#11
       - SMax#294 <= 0
 c350: 2 z(2,2)#13 + 3 z(2,3)#14 + 4 z(2,4)#15 + 5 z(2,5)#16 + 6 z(2,6)#17
       - SMax#294 <= 0
 c351: 2 z(3,2)#19 + 3 z(3,3)#20 + 4 z(3,4)#21 + 5 z(3,5)#22 + 6 z(3,6)#23
       - SMax#294 <= 0
 c352: 2 z(4,2)#25 + 3 z(4,3)#26 + 4 z(4,4)#27 + 5 z(4,5)#28 + 6 z(4,6)#29
       - SMax#294 <= 0
 c353: 2 z(5,2)#31 + 3 z(5,3)#32 + 4 z(5,4)#33 + 5 z(5,5)#34 + 6 z(5,6)#35
       - SMax#294 <= 0
 c354: 2 z(6,2)#37 + 3 z(6,3)#38 + 4 z(6,4)#39 + 5 z(6,5)#40 + 6 z(6,6)#41
       - SMax#294 <= 0
 c355: SMax#294 <= 6
Bounds
 0 <= y(1,1)#0 <= 1
 0 <= y(2,1)#1 <= 1
 0 <= y(3,1)#2 <= 1
 0 <= y(4,1)#3 <= 1
 0 <= y(5,1)#4 <= 1
 0 <= y(6,1)#5 <= 1
 0 <= z(1,1)#6 <= 1
 0 <= z(1,2)#7 <= 1
 0 <= z(1,3)#8 <= 1
 0 <= z(1,4)#9 <= 1
 0 <= z(1,5)#10 <= 1
 0 <= z(1,6)#11 <= 1
 0 <= z(2,1)#12 <= 1
 0 <= z(2,2)#13 <= 1
 0 <= z(2,3)#14 <= 1
 0 <= z(2,4)#15 <= 1
 0 <= z(2,5)#16 <= 1
 0 <= z(2,6)#17 <= 1
 0 <= z(3,1)#18 <= 1
 0 <= z(3,2)#19 <= 1
 0 <= z(3,3)#20 <= 1
 0 <= z(3,4)#21 <= 1
 0 <= z(3,5)#22 <= 1
 0 <= z(3,6)#23 <= 1
 0 <= z(4,1)#24 <= 1
 0 <= z(4,2)#25 <= 1
 0 <= z(4,3)#26 <= 1
 0 <= z(4,4)#27 <= 1
 0 <= z(4,5)#28 <= 1
 0 <= z(4,6)#29 <= 1
 0 <= z(5,1)#30 <= 1
 0 <= z(5,2)#31 <= 1
 0 <= z(5,3)#32 <= 1
 0 <= z(5,4)#33 <= 1
 0 <= z(5,5)#34 <= 1
 0 <= z(5,6)#35 <= 1
 0 <= z(6,1)#36 <= 1
 0 <= z(6,2)#37 <= 1
 0 <= z(6,3)#38 <= 1
 0 <= z(6,4)#39 <= 1
 0 <= z(6,5)#40 <= 1
 0 <= z(6,6)#41 <= 1
 0 <= x(1,1)#42 <= 1
 0 <= x(1,2)#43 <= 1
 0 <= x(1,3)#44 <= 1
 0 <= x(1,4)#45 <= 1
 0 <= x(1,5)#46 <= 1
 0 <= x(1,6)#47 <= 1
 0 <= x(2,1)#48 <= 1
 0 <= x(2,2)#49 <= 1
 0 <= x(2,3)#50 <= 1
 0 <= x(2,4)#51 <= 1
 0 <= x(2,5)#52 <= 1
 0 <= x(2,6)#53 <= 1
 0 <= x(3,1)#54 <= 1
 0 <= x(3,2)#55 <= 1
 0 <= x(3,3)#56 <= 1
 0 <= x(3,4)#57 <= 1
 0 <= x(3,5)#58 <= 1
 0 <= x(3,6)#59 <= 1
 0 <= x(4,1)#60 <= 1
 0 <= x(4,2)#61 <= 1
 0 <= x(4,3)#62 <= 1
 0 <= x(4,4)#63 <= 1
 0 <= x(4,5)#64 <= 1
 0 <= x(4,6)#65 <= 1
 0 <= x(5,1)#66 <= 1
 0 <= x(5,2)#67 <= 1
 0 <= x(5,3)#68 <= 1
 0 <= x(5,4)#69 <= 1
 0 <= x(5,5)#70 <= 1
 0 <= x(5,6)#71 <= 1
 0 <= x(6,1)#72 <= 1
 0 <= x(6,2)#73 <= 1
 0 <= x(6,3)#74 <= 1
 0 <= x(6,4)#75 <= 1
 0 <= x(6,5)#76 <= 1
 0 <= x(6,6)#77 <= 1
 0 <= t(1,1,1)#78 <= 1
 0 <= t(1,1,2)#79 <= 1
 0 <= t(1,1,3)#80 <= 1
 0 <= t(1,1,4)#81 <= 1
 0 <= t(1,1,5)#82 <= 1
 0 <= t(1,1,6)#83 <= 1
 0 <= t(1,2,1)#84 <= 1
 0 <= t(1,2,2)#85 <= 1
 0 <= t(1,2,3)#86 <= 1
 0 <= t(1,2,4)#87 <= 1
 0 <= t(1,2,5)#88 <= 1
 0 <= t(1,2,6)#89 <= 1
 0 <= t(1,3,1)#90 <= 1
 0 <= t(1,3,2)#91 <= 1
 0 <= t(1,3,3)#92 <= 1
 0 <= t(1,3,4)#93 <= 1
 0 <= t(1,3,5)#94 <= 1
 0 <= t(1,3,6)#95 <= 1
 0 <= t(1,4,1)#96 <= 1
 0 <= t(1,4,2)#97 <= 1
 0 <= t(1,4,3)#98 <= 1
 0 <= t(1,4,4)#99 <= 1
 0 <= t(1,4,5)#100 <= 1
 0 <= t(1,4,6)#101 <= 1
 0 <= t(1,5,1)#102 <= 1
 0 <= t(1,5,2)#103 <= 1
 0 <= t(1,5,3)#104 <= 1
 0 <= t(1,5,4)#105 <= 1
 0 <= t(1,5,5)#106 <= 1
 0 <= t(1,5,6)#107 <= 1
 0 <= t(1,6,1)#108 <= 1
 0 <= t(1,6,2)#109 <= 1
 0 <= t(1,6,3)#110 <= 1
 0 <= t(1,6,4)#111 <= 1
 0 <= t(1,6,5)#112 <= 1
 0 <= t(1,6,6)#113 <= 1
 0 <= t(2,1,1)#114 <= 1
 0 <= t(2,1,2)#115 <= 1
 0 <= t(2,1,3)#116 <= 1
 0 <= t(2,1,4)#117 <= 1
 0 <= t(2,1,5)#118 <= 1
 0 <= t(2,1,6)#119 <= 1
 0 <= t(2,2,1)#120 <= 1
 0 <= t(2,2,2)#121 <= 1
 0 <= t(2,2,3)#122 <= 1
 0 <= t(2,2,4)#123 <= 1
 0 <= t(2,2,5)#124 <= 1
 0 <= t(2,2,6)#125 <= 1
 0 <= t(2,3,1)#126 <= 1
 0 <= t(2,3,2)#127 <= 1
 0 <= t(2,3,3)#128 <= 1
 0 <= t(2,3,4)#129 <= 1
 0 <= t(2,3,5)#130 <= 1
 0 <= t(2,3,6)#131 <= 1
 0 <= t(2,4,1)#132 <= 1
 0 <= t(2,4,2)#133 <= 1
 0 <= t(2,4,3)#134 <= 1
 0 <= t(2,4,4)#135 <= 1
 0 <= t(2,4,5)#136 <= 1
 0 <= t(2,4,6)#137 <= 1
 0 <= t(2,5,1)#138 <= 1
 0 <= t(2,5,2)#139 <= 1
 0 <= t(2,5,3)#140 <= 1
 0 <= t(2,5,4)#141 <= 1
 0 <= t(2,5,5)#142 <= 1
 0 <= t(2,5,6)#143 <= 1
 0 <= t(2,6,1)#144 <= 1
 0 <= t(2,6,2)#145 <= 1
 0 <= t(2,6,3)#146 <= 1
 0 <= t(2,6,4)#147 <= 1
 0 <= t(2,6,5)#148 <= 1
 0 <= t(2,6,6)#149 <= 1
 0 <= t(3,1,1)#150 <= 1
 0 <= t(3,1,2)#151 <= 1
 0 <= t(3,1,3)#152 <= 1
 0 <= t(3,1,4)#153 <= 1
 0 <= t(3,1,5)#154 <= 1
 0 <= t(3,1,6)#155 <= 1
 0 <= t(3,2,1)#156 <= 1
 0 <= t(3,2,2)#157 <= 1
 0 <= t(3,2,3)#158 <= 1
 0 <= t(3,2,4)#159 <= 1
 0 <= t(3,2,5)#160 <= 1
 0 <= t(3,2,6)#161 <= 1
 0 <= t(3,3,1)#162 <= 1
 0 <= t(3,3,2)#163 <= 1
 0 <= t(3,3,3)#164 <= 1
 0 <= t(3,3,4)#165 <= 1
 0 <= t(3,3,5)#166 <= 1
 0 <= t(3,3,6)#167 <= 1
 0 <= t(3,4,1)#168 <= 1
 0 <= t(3,4,2)#169 <= 1
 0 <= t(3,4,3)#170 <= 1
 0 <= t(3,4,4)#171 <= 1
 0 <= t(3,4,5)#172 <= 1
 0 <= t(3,4,6)#173 <= 1
 0 <= t(3,5,1)#174 <= 1
 0 <= t(3,5,2)#175 <= 1
 0 <= t(3,5,3)#176 <= 1
 0 <= t(3,5,4)#177 <= 1
 0 <= t(3,5,5)#178 <= 1
 0 <= t(3,5,6)#179 <= 1
 0 <= t(3,6,1)#180 <= 1
 0 <= t(3,6,2)#181 <= 1
 0 <= t(3,6,3)#182 <= 1
 0 <= t(3,6,4)#183 <= 1
 0 <= t(3,6,5)#184 <= 1
 0 <= t(3,6,6)#185 <= 1
 0 <= t(4,1,1)#186 <= 1
 0 <= t(4,1,2)#187 <= 1
 0 <= t(4,1,3)#188 <= 1
 0 <= t(4,1,4)#189 <= 1
 0 <= t(4,1,5)#190 <= 1
 0 <= t(4,1,6)#191 <= 1
 0 <= t(4,2,1)#192 <= 1
 0 <= t(4,2,2)#193 <= 1
 0 <= t(4,2,3)#194 <= 1
 0 <= t(4,2,4)#195 <= 1
 0 <= t(4,2,5)#196 <= 1
 0 <= t(4,2,6)#197 <= 1
 0 <= t(4,3,1)#198 <= 1
 0 <= t(4,3,2)#199 <= 1
 0 <= t(4,3,3)#200 <= 1
 0 <= t(4,3,4)#201 <= 1
 0 <= t(4,3,5)#202 <= 1
 0 <= t(4,3,6)#203 <= 1
 0 <= t(4,4,1)#204 <= 1
 0 <= t(4,4,2)#205 <= 1
 0 <= t(4,4,3)#206 <= 1
 0 <= t(4,4,4)#207 <= 1
 0 <= t(4,4,5)#208 <= 1
 0 <= t(4,4,6)#209 <= 1
 0 <= t(4,5,1)#210 <= 1
 0 <= t(4,5,2)#211 <= 1
 0 <= t(4,5,3)#212 <= 1
 0 <= t(4,5,4)#213 <= 1
 0 <= t(4,5,5)#214 <= 1
 0 <= t(4,5,6)#215 <= 1
 0 <= t(4,6,1)#216 <= 1
 0 <= t(4,6,2)#217 <= 1
 0 <= t(4,6,3)#218 <= 1
 0 <= t(4,6,4)#219 <= 1
 0 <= t(4,6,5)#220 <= 1
 0 <= t(4,6,6)#221 <= 1
 0 <= t(5,1,1)#222 <= 1
 0 <= t(5,1,2)#223 <= 1
 0 <= t(5,1,3)#224 <= 1
 0 <= t(5,1,4)#225 <= 1
 0 <= t(5,1,5)#226 <= 1
 0 <= t(5,1,6)#227 <= 1
 0 <= t(5,2,1)#228 <= 1
 0 <= t(5,2,2)#229 <= 1
 0 <= t(5,2,3)#230 <= 1
 0 <= t(5,2,4)#231 <= 1
 0 <= t(5,2,5)#232 <= 1
 0 <= t(5,2,6)#233 <= 1
 0 <= t(5,3,1)#234 <= 1
 0 <= t(5,3,2)#235 <= 1
 0 <= t(5,3,3)#236 <= 1
 0 <= t(5,3,4)#237 <= 1
 0 <= t(5,3,5)#238 <= 1
 0 <= t(5,3,6)#239 <= 1
 0 <= t(5,4,1)#240 <= 1
 0 <= t(5,4,2)#241 <= 1
 0 <= t(5,4,3)#242 <= 1
 0 <= t(5,4,4)#243 <= 1
 0 <= t(5,4,5)#244 <= 1
 0 <= t(5,4,6)#245 <= 1
 0 <= t(5,5,1)#246 <= 1
 0 <= t(5,5,2)#247 <= 1
 0 <= t(5,5,3)#248 <= 1
 0 <= t(5,5,4)#249 <= 1
 0 <= t(5,5,5)#250 <= 1
 0 <= t(5,5,6)#251 <= 1
 0 <= t(5,6,1)#252 <= 1
 0 <= t(5,6,2)#253 <= 1
 0 <= t(5,6,3)#254 <= 1
 0 <= t(5,6,4)#255 <= 1
 0 <= t(5,6,5)#256 <= 1
 0 <= t(5,6,6)#257 <= 1
 0 <= t(6,1,1)#258 <= 1
 0 <= t(6,1,2)#259 <= 1
 0 <= t(6,1,3)#260 <= 1
 0 <= t(6,1,4)#261 <= 1
 0 <= t(6,1,5)#262 <= 1
 0 <= t(6,1,6)#263 <= 1
 0 <= t(6,2,1)#264 <= 1
 0 <= t(6,2,2)#265 <= 1
 0 <= t(6,2,3)#266 <= 1
 0 <= t(6,2,4)#267 <= 1
 0 <= t(6,2,5)#268 <= 1
 0 <= t(6,2,6)#269 <= 1
 0 <= t(6,3,1)#270 <= 1
 0 <= t(6,3,2)#271 <= 1
 0 <= t(6,3,3)#272 <= 1
 0 <= t(6,3,4)#273 <= 1
 0 <= t(6,3,5)#274 <= 1
 0 <= t(6,3,6)#275 <= 1
 0 <= t(6,4,1)#276 <= 1
 0 <= t(6,4,2)#277 <= 1
 0 <= t(6,4,3)#278 <= 1
 0 <= t(6,4,4)#279 <= 1
 0 <= t(6,4,5)#280 <= 1
 0 <= t(6,4,6)#281 <= 1
 0 <= t(6,5,1)#282 <= 1
 0 <= t(6,5,2)#283 <= 1
 0 <= t(6,5,3)#284 <= 1
 0 <= t(6,5,4)#285 <= 1
 0 <= t(6,5,5)#286 <= 1
 0 <= t(6,5,6)#287 <= 1
 0 <= t(6,6,1)#288 <= 1
 0 <= t(6,6,2)#289 <= 1
 0 <= t(6,6,3)#290 <= 1
 0 <= t(6,6,4)#291 <= 1
 0 <= t(6,6,5)#292 <= 1
 0 <= t(6,6,6)#293 <= 1
      SMax#294 >= 0
Binaries
 y(1,1)#0  y(2,1)#1  y(3,1)#2  y(4,1)#3  y(5,1)#4  y(6,1)#5  z(1,1)#6 
 z(1,2)#7  z(1,3)#8  z(1,4)#9  z(1,5)#10  z(1,6)#11  z(2,1)#12  z(2,2)#13 
 z(2,3)#14  z(2,4)#15  z(2,5)#16  z(2,6)#17  z(3,1)#18  z(3,2)#19  z(3,3)#20 
 z(3,4)#21  z(3,5)#22  z(3,6)#23  z(4,1)#24  z(4,2)#25  z(4,3)#26  z(4,4)#27 
 z(4,5)#28  z(4,6)#29  z(5,1)#30  z(5,2)#31  z(5,3)#32  z(5,4)#33  z(5,5)#34 
 z(5,6)#35  z(6,1)#36  z(6,2)#37  z(6,3)#38  z(6,4)#39  z(6,5)#40  z(6,6)#41 
 x(1,1)#42  x(1,2)#43  x(1,3)#44  x(1,4)#45  x(1,5)#46  x(1,6)#47  x(2,1)#48 
 x(2,2)#49  x(2,3)#50  x(2,4)#51  x(2,5)#52  x(2,6)#53  x(3,1)#54  x(3,2)#55 
 x(3,3)#56  x(3,4)#57  x(3,5)#58  x(3,6)#59  x(4,1)#60  x(4,2)#61  x(4,3)#62 
 x(4,4)#63  x(4,5)#64  x(4,6)#65  x(5,1)#66  x(5,2)#67  x(5,3)#68  x(5,4)#69 
 x(5,5)#70  x(5,6)#71  x(6,1)#72  x(6,2)#73  x(6,3)#74  x(6,4)#75  x(6,5)#76 
 x(6,6)#77  t(1,1,1)#78  t(1,1,2)#79  t(1,1,3)#80  t(1,1,4)#81  t(1,1,5)#82 
 t(1,1,6)#83  t(1,2,1)#84  t(1,2,2)#85  t(1,2,3)#86  t(1,2,4)#87  t(1,2,5)#88 
 t(1,2,6)#89  t(1,3,1)#90  t(1,3,2)#91  t(1,3,3)#92  t(1,3,4)#93  t(1,3,5)#94 
 t(1,3,6)#95  t(1,4,1)#96  t(1,4,2)#97  t(1,4,3)#98  t(1,4,4)#99  t(1,4,5)#100 
 t(1,4,6)#101  t(1,5,1)#102  t(1,5,2)#103  t(1,5,3)#104  t(1,5,4)#105 
 t(1,5,5)#106  t(1,5,6)#107  t(1,6,1)#108  t(1,6,2)#109  t(1,6,3)#110 
 t(1,6,4)#111  t(1,6,5)#112  t(1,6,6)#113  t(2,1,1)#114  t(2,1,2)#115 
 t(2,1,3)#116  t(2,1,4)#117  t(2,1,5)#118  t(2,1,6)#119  t(2,2,1)#120 
 t(2,2,2)#121  t(2,2,3)#122  t(2,2,4)#123  t(2,2,5)#124  t(2,2,6)#125 
 t(2,3,1)#126  t(2,3,2)#127  t(2,3,3)#128  t(2,3,4)#129  t(2,3,5)#130 
 t(2,3,6)#131  t(2,4,1)#132  t(2,4,2)#133  t(2,4,3)#134  t(2,4,4)#135 
 t(2,4,5)#136  t(2,4,6)#137  t(2,5,1)#138  t(2,5,2)#139  t(2,5,3)#140 
 t(2,5,4)#141  t(2,5,5)#142  t(2,5,6)#143  t(2,6,1)#144  t(2,6,2)#145 
 t(2,6,3)#146  t(2,6,4)#147  t(2,6,5)#148  t(2,6,6)#149  t(3,1,1)#150 
 t(3,1,2)#151  t(3,1,3)#152  t(3,1,4)#153  t(3,1,5)#154  t(3,1,6)#155 
 t(3,2,1)#156  t(3,2,2)#157  t(3,2,3)#158  t(3,2,4)#159  t(3,2,5)#160 
 t(3,2,6)#161  t(3,3,1)#162  t(3,3,2)#163  t(3,3,3)#164  t(3,3,4)#165 
 t(3,3,5)#166  t(3,3,6)#167  t(3,4,1)#168  t(3,4,2)#169  t(3,4,3)#170 
 t(3,4,4)#171  t(3,4,5)#172  t(3,4,6)#173  t(3,5,1)#174  t(3,5,2)#175 
 t(3,5,3)#176  t(3,5,4)#177  t(3,5,5)#178  t(3,5,6)#179  t(3,6,1)#180 
 t(3,6,2)#181  t(3,6,3)#182  t(3,6,4)#183  t(3,6,5)#184  t(3,6,6)#185 
 t(4,1,1)#186  t(4,1,2)#187  t(4,1,3)#188  t(4,1,4)#189  t(4,1,5)#190 
 t(4,1,6)#191  t(4,2,1)#192  t(4,2,2)#193  t(4,2,3)#194  t(4,2,4)#195 
 t(4,2,5)#196  t(4,2,6)#197  t(4,3,1)#198  t(4,3,2)#199  t(4,3,3)#200 
 t(4,3,4)#201  t(4,3,5)#202  t(4,3,6)#203  t(4,4,1)#204  t(4,4,2)#205 
 t(4,4,3)#206  t(4,4,4)#207  t(4,4,5)#208  t(4,4,6)#209  t(4,5,1)#210 
 t(4,5,2)#211  t(4,5,3)#212  t(4,5,4)#213  t(4,5,5)#214  t(4,5,6)#215 
 t(4,6,1)#216  t(4,6,2)#217  t(4,6,3)#218  t(4,6,4)#219  t(4,6,5)#220 
 t(4,6,6)#221  t(5,1,1)#222  t(5,1,2)#223  t(5,1,3)#224  t(5,1,4)#225 
 t(5,1,5)#226  t(5,1,6)#227  t(5,2,1)#228  t(5,2,2)#229  t(5,2,3)#230 
 t(5,2,4)#231  t(5,2,5)#232  t(5,2,6)#233  t(5,3,1)#234  t(5,3,2)#235 
 t(5,3,3)#236  t(5,3,4)#237  t(5,3,5)#238  t(5,3,6)#239  t(5,4,1)#240 
 t(5,4,2)#241  t(5,4,3)#242  t(5,4,4)#243  t(5,4,5)#244  t(5,4,6)#245 
 t(5,5,1)#246  t(5,5,2)#247  t(5,5,3)#248  t(5,5,4)#249  t(5,5,5)#250 
 t(5,5,6)#251  t(5,6,1)#252  t(5,6,2)#253  t(5,6,3)#254  t(5,6,4)#255 
 t(5,6,5)#256  t(5,6,6)#257  t(6,1,1)#258  t(6,1,2)#259  t(6,1,3)#260 
 t(6,1,4)#261  t(6,1,5)#262  t(6,1,6)#263  t(6,2,1)#264  t(6,2,2)#265 
 t(6,2,3)#266  t(6,2,4)#267  t(6,2,5)#268  t(6,2,6)#269  t(6,3,1)#270 
 t(6,3,2)#271  t(6,3,3)#272  t(6,3,4)#273  t(6,3,5)#274  t(6,3,6)#275 
 t(6,4,1)#276  t(6,4,2)#277  t(6,4,3)#278  t(6,4,4)#279  t(6,4,5)#280 
 t(6,4,6)#281  t(6,5,1)#282  t(6,5,2)#283  t(6,5,3)#284  t(6,5,4)#285 
 t(6,5,5)#286  t(6,5,6)#287  t(6,6,1)#288  t(6,6,2)#289  t(6,6,3)#290 
 t(6,6,4)#291  t(6,6,5)#292  t(6,6,6)#293 
Generals
 SMax#294 
End
